db/inputs/2232146298875598216392220482895517153.smt2
(set-logic QF_FP)
(declare-const x0 (_ FloatingPoint 11 53))
(declare-const x1 (_ FloatingPoint 11 53))
(declare-const x2 (_ FloatingPoint 11 53))
(declare-const x3 (_ FloatingPoint 11 53))
(declare-const x4 (_ FloatingPoint 11 53))
(declare-const x5 (_ FloatingPoint 11 53))
(declare-const x6 (_ FloatingPoint 11 53))
(declare-const x7 (_ FloatingPoint 11 53))
(declare-const x8 (_ FloatingPoint 11 53))
(declare-const x9 (_ FloatingPoint 11 53))
(declare-const x10 (_ FloatingPoint 11 53))
(declare-const x11 (_ FloatingPoint 11 53))
(declare-const x12 (_ FloatingPoint 11 53))
(declare-const x13 (_ FloatingPoint 11 53))
(declare-const x14 (_ FloatingPoint 11 53))
(declare-const x15 (_ FloatingPoint 11 53))
(declare-const x16 (_ FloatingPoint 11 53))
(declare-const x17 (_ FloatingPoint 11 53))
(declare-const x18 (_ FloatingPoint 11 53))
(declare-const x19 (_ FloatingPoint 11 53))
(declare-const x20 (_ FloatingPoint 11 53))
(declare-const x21 (_ FloatingPoint 11 53))
(declare-const x22 (_ FloatingPoint 11 53))
(declare-const x23 (_ FloatingPoint 11 53))
(assert (fp.geq (fp.sub RNE (fp.div RNE (fp.div RNE x15 x9) (fp.add RNE x14 x19)) (fp.neg (fp.div RNE x17 x2))) (fp.neg (fp.sub RNE (fp.div RNE x3 x20) (fp.div RNE x7 x17)))))
(assert (fp.geq (fp.mul RNE (fp.mul RNE (fp.add RNE x17 x4) (fp.div RNE x15 x7)) (fp.mul RNE (fp.add RNE x1 x20) (fp.div RNE x2 x21))) (fp.div RNE (fp.sub RNE (fp.div RNE x17 x23) (fp.sub RNE x11 x16)) (fp.sub RNE (fp.mul RNE x10 x3) (fp.div RNE x5 x22)))))
(assert (fp.leq (fp.div RNE (fp.mul RNE (fp.mul RNE x15 x19) (fp.div RNE x2 x18)) (fp.sub RNE (fp.mul RNE x9 x1) (fp.add RNE x10 x14))) (fp.div RNE (fp.sub RNE (fp.neg x12) (fp.mul RNE x7 x13)) (fp.mul RNE (fp.div RNE x10 x11) (fp.neg x12)))))
(assert (fp.geq (fp.mul RNE (fp.neg (fp.mul RNE x0 x3)) (fp.neg (fp.sub RNE x23 x13))) (fp.mul RNE (fp.sub RNE (fp.add RNE x12 x0) (fp.add RNE x22 x0)) (fp.add RNE (fp.add RNE x15 x11) (fp.add RNE x21 x11)))))
(check-sat)
