db/data/2232146298875598216392220482895517153.z3.out
-------------------
2500.130432899
